(set-info :smt-lib-version 2.6)
(set-logic QF_S)
(set-info :source |
Generated by: Joel Day, Thorsten Ehlers, Mitja Kulczynski, Federico Mora, Florin Manea, Dirk Nowotka, Danny Poulsen, Zhengyang Lu
Application: Test WOORPJE
Target solver: WOORPJE
Publications: Day, J. D., Ehlers, T., Kulczynski, M., Manea, F., Nowotka, D., & Poulsen, D. B. (2019). On solving word equations using SAT. In RP 2019
Description: Transoformed and expanded from Track02
|)
(set-info :license "https://creativecommons.org/licenses/by/4.0/")
(set-info :category "random")
(set-info :status unknown)

(declare-fun H () String)
(declare-fun K () String)
(declare-fun I () String)
(declare-fun J () String)
(assert (= (str.++  "a" H "a" H "aaaaa" H "a" H "a" H "aaaa" H "a" H "aaaaa" H "a" H "a" H "aab" I "baa" I "b" J K "b" K)  (str.++  "a" H "a" H "aa" H "aa" H H "a" H "aa" H H H H H "a" H "aaa" H H H "a" H "aaab" J "a" J "a" J "a" J "aba" J "a" J "baabaa") ))
(check-sat)

(exit)
